# EJEMPLO DE INPUT EN SIESTA
# El objetivo de este cómputo es relajar la estrucutura inicial (con celda variable).

# Los pseudopotenciales para cada clase de atomo se deben guaradar en archivos individuales con extension '.psf'


# =========================================================================================================================


SystemName          relaxation
SystemLabel         relax
NumberOfAtoms       58
NumberOfSpecies     4
NetCharge           0



%block ChemicalSpeciesLabel
1   1   H
2   8   O
3   14  Si
4   20  Ca
%endblock ChemicalSpeciesLabel



% BASES DE CADA ESPECIE PARA LA EXPANSION EN ORBITALES ATOMICOS
%block PAO.Basis
Si       3      0.0000
n=3    0    2   E     18.4973      5.0324
      7.79352523574179        3.81158004589173
      1.00000000000000        1.00000000000000
n=3    1    2   E     17.8598      5.2031
      7.99747205706291        4.19861157571134
      1.00000000000000        1.00000000000000
n=3    2    1   E      9.7553      0.0000
      4.60610639645471
      1.00000000000000
H         2      2.72022
n=1   0   2   E   134.23176     5.88089
      6.41415     3.59161
      1.00000     1.00000
n=2   1   1   E   132.57601     5.96051
      6.73959
      1.00000
O        3     -0.2062
n=2    0    2   E     89.2503      5.0971
       5.96175037505551        2.52330170654204
              1.00000000000000        1.00000000000000
n=2    1    2   E     76.3408      7.1750
         7.85329514906232        2.48682077271886
            1.00000000000000        1.00000000000000
n=2    2    1   E    104.3073      0.0000
           3.92324958680187
         1.00000000000000
Ca   5      1.90213
n=3   0   1   E    61.56667     4.61281
    5.29940
          1.00000
n=4   0   2   E   164.86383     5.38785
       6.76569     4.96452
           1.00000     1.00000
n=3   1   1   E    86.94959     3.48034
        6.32716
     1.00000
n=4   1   1   E   112.03339     4.98424
        7.49434
        1.00000
n=3   2   1   E    87.65847    5.83989
        6.49046
         1.00000
%endblock PAO.Basis



# EXCHANGE-CORRELATION. 
xc.functional          GGA
xc.authors             PBE



DM.Tolerance           1.E-4            # CONVERGENCIA: Diferencia de energia entre elementos de la matriz de densidad
MaxSCFIterations       50               # Numero de iteraciones maximo en el ciclo autoconsistente

MD.TypeOfRun           CG               # Optimizacion de la geometria: Gradientes conjugados
MD.MaxForceTol         0.01 eV/Ang      # CONVERGENCIA: Fuerza maxima que sufren los atomos en su posicion de equilibrio
MD.VariableCell        .true.           # True --> El tamaño de la red cambia junto a las posiciones atomicas.
MD.NumCGsteps          500              # Numero maximo de iteraciones para la optimizacion
MD.MaxStressTol        0.05 GPa         # CONVERGENCIA: tension maxima total de la celda

# PARAMETROS PARA ACELERAR LA CONVERGENCIA DE LA OPTIMIZACION Y DEL CICLO AUTOCONSISTENTE
DM.NumberPulay         5
DM.MixingWeight        0.05
DM.NumberKick          20
DM.KickMixingWeight    0.1
DM.MixSCF1            .false.

# PARAMETROS PARA LA INTEGRACION NUMERICA
MeshCutoff             400  Ry         # Energia de corte para las ondas planas
kgrid_cutoff           25  Bohr        # Radio de corte para la elección de puntos k



LatticeConstant 1.0 Ang
%block LatticeParameters		# a	b	c	alpha	beta	gamma
     6.811367    7.543518   22.544292     89.9846     89.9896    123.2522
%endblock LatticeParameters



AtomicCoordinatesFormat Fractional
%block AtomicCoordinatesAndAtomicSpecies
# x  y  z  Numero_correspondiente_a_la_especie  Etiqueta_de_la_especie
   0.758100   0.386200   0.157380   3   Si
   0.758100   0.386200   0.842620   3   Si
   0.258100   0.386200   0.657380   3   Si
   0.258100   0.386200   0.342620   3   Si
   0.908700   0.753100   0.071160   3   Si
   0.908700   0.753100   0.928840   3   Si
   0.408700   0.753100   0.571160   3   Si
   0.408700   0.753100   0.428840   3   Si
   0.759200   0.969700   0.157730   3   Si
   0.759200   0.969700   0.842270   3   Si
   0.259200   0.969700   0.657730   3   Si
   0.259200   0.969700   0.342270   3   Si
   0.771000   0.505900   0.094200   2   O
   0.771000   0.505900   0.905800   2   O
   0.271000   0.505900   0.594200   2   O
   0.271000   0.505900   0.405800   2   O
   0.759000   0.178000   0.132700   2   O
   0.759000   0.178000   0.867300   2   O
   0.259000   0.178000   0.632700   2   O
   0.259000   0.178000   0.367300   2   O
   0.985000   0.536900   0.198200   2   O
   0.985000   0.536900   0.801800   2   O
   0.485000   0.536900   0.698200   2   O
   0.485000   0.536900   0.301800   2   O
   0.519000   0.306300   0.194200   2   O
   0.519000   0.306300   0.805800   2   O
   0.019000   0.306300   0.694200   2   O
   0.019000   0.306300   0.305800   2   O
   0.894000   0.746000   1.000000   2   O
   0.394000   0.746000   0.500000   2   O
   0.188000   0.893000   0.094000   2   O
   0.188000   0.893000   0.906000   2   O
   0.688000   0.893000   0.594000   2   O
   0.688000   0.893000   0.406000   2   O
   0.770000   0.860000   0.095100   2   O
   0.770000   0.860000   0.904900   2   O
   0.270000   0.860000   0.595100   2   O
   0.270000   0.860000   0.404900   2   O
   0.523000   0.811000   0.195100   2   O
   0.523000   0.811000   0.804900   2   O
   0.023000   0.811000   0.695100   2   O
   0.023000   0.811000   0.304900   2   O
   0.987000   0.045900   0.198500   2   O
   0.987000   0.045900   0.801500   2   O
   0.487000   0.045900   0.698500   2   O
   0.487000   0.045900   0.301500   2   O
   0.265100   0.432800   0.205570   4   Ca
   0.265100   0.432800   0.794430   4   Ca
   0.765100   0.432800   0.705570   4   Ca
   0.765100   0.432800   0.294430   4   Ca
   0.749900   0.922800   0.293480   4   Ca
   0.749900   0.922800   0.706520   4   Ca
   0.249900   0.922800   0.793480   4   Ca
   0.249900   0.922800   0.206520   4   Ca
   0.281520   0.855150   0.086980   1   H
   0.281520   0.855150   0.913020   1   H
   0.781520   0.855150   0.586980   1   H
   0.781520   0.855150   0.413020   1   H
%endblock AtomicCoordinatesAndAtomicSpecies
AtomCoorFormatOut Ang 
