# EJEMPLO DE INPUT EN SIESTA
# El objetivo de este cómputo es relajar la estrucutura inicial (con celda variable).

# Los pseudopotenciales para cada clase de atomo se deben guaradar en archivos individuales con extension '.psf'


# =========================================================================================================================


SystemName          relaxation
SystemLabel         relax
NumberOfAtoms       88
NumberOfSpecies     4
NetCharge           0



%block ChemicalSpeciesLabel
1   1   H
2   8   O
3   14  Si
4   20  Ca
%endblock ChemicalSpeciesLabel



% BASES DE CADA ESPECIE PARA LA EXPANSION EN ORBITALES ATOMICOS
%block PAO.Basis
Si       3      0.0000
n=3    0    2   E     18.4973      5.0324
      7.79352523574179        3.81158004589173
      1.00000000000000        1.00000000000000
n=3    1    2   E     17.8598      5.2031
      7.99747205706291        4.19861157571134
      1.00000000000000        1.00000000000000
n=3    2    1   E      9.7553      0.0000
      4.60610639645471
      1.00000000000000
H         2      2.72022
n=1   0   2   E   134.23176     5.88089
      6.41415     3.59161
      1.00000     1.00000
n=2   1   1   E   132.57601     5.96051
      6.73959
      1.00000
O        3     -0.2062
n=2    0    2   E     89.2503      5.0971
       5.96175037505551        2.52330170654204
              1.00000000000000        1.00000000000000
n=2    1    2   E     76.3408      7.1750
         7.85329514906232        2.48682077271886
            1.00000000000000        1.00000000000000
n=2    2    1   E    104.3073      0.0000
           3.92324958680187
         1.00000000000000
Ca   5      1.90213
n=3   0   1   E    61.56667     4.61281
    5.29940
          1.00000
n=4   0   2   E   164.86383     5.38785
       6.76569     4.96452
           1.00000     1.00000
n=3   1   1   E    86.94959     3.48034
        6.32716
     1.00000
n=4   1   1   E   112.03339     4.98424
        7.49434
        1.00000
n=3   2   1   E    87.65847    5.83989
        6.49046
         1.00000
%endblock PAO.Basis



# EXCHANGE-CORRELATION. Aproximacion del gradiete generalizado --> PBE
xc.functional          GGA
xc.authors             PBE



DM.Tolerance           1.E-4            # CONVERGENCIA: Diferencia de energia entre elementos de la matriz de densidad
MaxSCFIterations       50               # Numero de iteraciones maximo en el ciclo autoconsistente

MD.TypeOfRun           CG               # Optimizacion de la geometria: Gradientes conjugados
MD.MaxForceTol         0.01 eV/Ang      # CONVERGENCIA: Fuerza maxima que sufren los atomos en su posicion de equilibrio
MD.VariableCell        .true.           # True --> El tamaño de la red cambia junto a las posiciones atomicas.
MD.NumCGsteps          500              # Numero maximo de iteraciones para la optimizacion
MD.MaxStressTol        0.05 GPa         # CONVERGENCIA: tension maxima total de la celda

# PARAMETROS PARA ACELERAR LA CONVERGENCIA DE LA OPTIMIZACION Y DEL CICLO AUTOCONSISTENTE
DM.NumberPulay         5
DM.MixingWeight        0.05
DM.NumberKick          20
DM.KickMixingWeight    0.1
DM.MixSCF1            .false.

# PARAMETROS PARA LA INTEGRACION NUMERICA
MeshCutoff             500  Ry         # Energia de corte para las ondas planas
kgrid_cutoff           30  Bohr        # Radio de corte para la elección de puntos k



LatticeConstant 1.0 Ang
%block LatticeParameters		# a	b	c	alpha	beta	gamma
     6.811367    7.543518   22.544292     89.9846     89.9896    123.2522
%endblock LatticeParameters



AtomicCoordinatesFormat Fractional
%block AtomicCoordinatesAndAtomicSpecies
# x  y  z  Numero_correspondiente_a_la_especie  Etiqueta_de_la_especie
   0.264626104   0.439003893   0.203424275   4   Ca
   0.765562732   0.439278046   0.703694716   4   Ca
   0.267227945   0.440149115   0.796470160   4   Ca
   0.765571833   0.439461423   0.296651813   4   Ca
   0.242883611   0.930702602   0.789640814   4   Ca
   0.741366051   0.929649299   0.289593378   4   Ca
   0.240741746   0.929385036   0.210544402   4   Ca
   0.741566922   0.929824540   0.710400641   4   Ca
   0.276757423   0.848982783   0.088195088   1   H
   0.777782692   0.851043930   0.587526284   1   H
   0.282004989   0.856028413   0.913242169   1   H
   0.780935169   0.856028021   0.413085413   1   H
   0.173633125   0.894179075   0.101460426   2   O
   0.673925185   0.894764325   0.601366155   2   O
   0.176417986   0.897026677   0.898793644   2   O
   0.674411881   0.895819344   0.398677030   2   O
   0.763856992   0.508744655   0.092868367   2   O
   0.264681468   0.508684974   0.592768350   2   O
   0.767154239   0.510499958   0.907008994   2   O
   0.265586361   0.509532064   0.407014064   2   O
   0.744835026   0.179409466   0.129005372   2   O
   0.244498513   0.178971495   0.628907157   2   O
   0.746154252   0.180158898   0.870996837   2   O
   0.244579957   0.179281829   0.370893331   2   O
   0.479024122   0.539221300   0.698637911   2   O
   0.978207526   0.539276945   0.198713073   2   O
   0.479744876   0.539745436   0.301180674   2   O
   0.982041272   0.540520456   0.801308235   2   O
   0.510118486   0.305888536   0.194633805   2   O
   0.011158646   0.306520568   0.694596117   2   O
   0.514476282   0.308607989   0.805008302   2   O
   0.011985997   0.307314104   0.305123875   2   O
   0.944450938   0.771902317   0.000027344   2   O
   0.443900881   0.771630304   0.499982632   2   O
   0.772429696   0.872354905   0.091995176   2   O
   0.271826447   0.871520505   0.592101827   2   O
   0.773510028   0.872552219   0.907862166   2   O
   0.272041665   0.871940486   0.407991405   2   O
   0.514341031   0.819961997   0.193403451   2   O
   0.014880177   0.820363920   0.693580995   2   O
   0.516955354   0.821552212   0.806352060   2   O
   0.015437342   0.820426971   0.306411061   2   O
   0.480293465   0.053480589   0.698263246   2   O
   0.979675071   0.053207396   0.198386197   2   O
   0.480774410   0.053812442   0.301764393   2   O
   0.982232857   0.054827945   0.801695361   2   O
   0.341827605   0.249205480   0.000805564   2   O
   0.841185981   0.249428598   0.499417330   2   O
   0.209457884   0.100903633   0.000741357   1   H
   0.708781091   0.101174904   0.499716062   1   H
   0.481101236   0.237748106   0.000772891   1   H
   0.980478631   0.238038809   0.499483498   1   H
   0.674711865   0.148821726   0.000392327   2   O
   0.174355408   0.148918029   0.500495179   2   O
   0.772331745   0.197017589   0.036591453   1   H
   0.271001744   0.197293735   0.536888010   1   H
   0.775166380   0.198440385  -0.035298034   1   H
   0.275792335   0.198937520   0.465004151   1   H
   0.344524899   0.732268514  -0.000792879   2   O
   0.844503388   0.732580873   0.500534418   2   O
   0.206419861   0.742239913   0.000132091   1   H
   0.706339704   0.742443353   0.500101050   1   H
   0.484175423   0.883838509  -0.000158300   1   H
  -0.015846061   0.884182097   0.500412449   1   H
   0.266993022   0.442383613   0.094064455   2   O
   0.766355446   0.440341368   0.594353201   2   O
   0.267420134   0.440159794   0.905707871   2   O
   0.767135233   0.442156888   0.405886817   2   O
   0.309322327   0.560839215   0.066970067   1   H
   0.807233173   0.558627874   0.567344636   1   H
   0.307503389   0.558616741   0.932546836   1   H
   0.809021641   0.561217127   0.432662959   1   H
   0.304034711   0.356098166   0.068904190   1   H
   0.803846547   0.354713674   0.569134729   1   H
   0.305412876   0.355218320   0.931055933   1   H
   0.803879311   0.356387885   0.431327057   1   H
   0.748312500   0.386842173   0.157104461   3   Si
   0.249112894   0.386937228   0.657027512   3   Si
   0.751829721   0.388530047   0.842865355   3   Si
   0.249726400   0.387507782   0.342801739   3   Si
   0.901588448   0.754283127   0.072733817   3   Si
   0.401790861   0.754304909   0.572741040   3   Si
   0.903932494   0.755794365   0.927221221   3   Si
   0.402173467   0.754774945   0.427249288   3   Si
   0.753885824   0.978530170   0.155716579   3   Si
   0.254042467   0.978402404   0.655738749   3   Si
   0.755911289   0.979635967   0.844248539   3   Si
   0.254422919   0.978777165   0.344294300   3   Si
%endblock AtomicCoordinatesAndAtomicSpecies
AtomCoorFormatOut Ang 
